Version identifier: 22.1.0.0 | 2022-03-09 | 1a383f8ce
CPXPARAM_Threads                                 1
CPXPARAM_MIP_Strategy_VariableSelect             3
CPXPARAM_TimeLimit                               599.99073980200001
Tried aggregator 1 time.
MIP Presolve eliminated 15 rows and 0 columns.
Reduced MIP has 4005 rows, 10000 columns, and 81736 nonzeros.
Reduced MIP has 10000 binaries, 0 generals, 0 SOSs, and 0 indicators.
Presolve time = 0.05 sec. (39.41 ticks)
Probing time = 0.01 sec. (4.41 ticks)
Tried aggregator 1 time.
Detecting symmetries...
Reduced MIP has 4005 rows, 10000 columns, and 81736 nonzeros.
Reduced MIP has 10000 binaries, 0 generals, 0 SOSs, and 0 indicators.
Presolve time = 0.06 sec. (49.90 ticks)
Probing time = 0.01 sec. (4.41 ticks)
Clique table members: 2990.
MIP emphasis: balance optimality and feasibility.
MIP search method: dynamic search.
Parallel mode: none, using 1 thread.
Root relaxation solution time = 2.82 sec. (2699.48 ticks)

        Nodes                                         Cuts/
   Node  Left     Objective  IInf  Best Integer    Best Bound    ItCnt     Gap

      0     0        0.0000  2126                      0.0000     8157         
      0     0        0.0000   298                    Cuts: 24     9292         
      0     0        0.0000   523                   Cuts: 130    13264         
      0     2        0.0000     8                      0.0000    13264         
Elapsed time = 71.24 sec. (69812.18 ticks, tree = 0.01 MB, solutions = 0)
*     1     1      integral     0        0.0000        0.0000    20403    0.00%
      1     0        0.0000     0        0.0000        0.0000    20403    0.00%

Clique cuts applied:  53
Zero-half cuts applied:  14
Lift and project cuts applied:  2
Gomory fractional cuts applied:  1

Root node processing (before b&c):
  Real time             =   71.17 sec. (69775.35 ticks)
Sequential b&c:
  Real time             =    2.94 sec. (2774.85 ticks)
                          ------------
Total (root+branch&cut) =   74.11 sec. (72550.20 ticks)
Primal:	500
Dual:	500
Status:	Optimal
Time:	74.1684
Sequence:
	17
	14
	3
	9
	0
	14
	1
	12
	16
	1
	12
	14
	1
	12
	16
	19
	12
	16
	19
	12
	14
	19
	12
	16
	19
	12
	14
	19
	12
	7
	19
	12
	16
	19
	12
	7
	1
	12
	16
	19
	12
	14
	1
	12
	14
	1
	12
	16
	19
	12
	16
	19
	12
	16
	19
	0
	7
	9
	13
	11
	9
	6
	11
	9
	4
	11
	9
	6
	14
	8
	5
	13
	9
	11
	13
	9
	11
	6
	9
	11
	3
	1
	12
	7
	1
	15
	11
	1
	15
	11
	1
	15
	0
	10
	15
	0
	10
	2
	0
	10
	2
	0
	19
	4
	11
	9
	13
	11
	9
	4
	11
	1
	15
	11
	1
	15
	11
	1
	15
	0
	10
	15
	0
	10
	2
	4
	18
	2
	3
	18
	2
	3
	18
	2
	4
	18
	2
	4
	18
	2
	4
	10
	12
	5
	1
	11
	15
	1
	11
	15
	1
	16
	12
	19
	14
	12
	1
	6
	12
	10
	13
	0
	9
	7
	0
	9
	7
	0
	2
	10
	0
	2
	3
	18
	2
	3
	18
	2
	5
	18
	2
	5
	18
	3
	5
	9
	11
	4
	1
	0
	15
	10
	0
	6
	10
	12
	13
	1
	11
	3
	9
	4
	11
	9
	13
	11
	9
	3
	16
	8
	4
	5
	18
	2
	4
	18
	2
	3
	18
	2
	4
	18
	2
	5
	10
	12
	6
	14
	17
	13
	14
	17
	6
	4
	8
	14
	6
	17
	7
	6
	8
	16
	13
	17
	14
	13
	17
	7
	6
	8
	7
	13
	8
	7
	13
	8
	7
	13
	8
	14
	13
	8
	7
	6
	17
	16
	13
	8
	16
	13
	8
	3
	7
	8
	3
	7
	17
	5
	7
	8
	4
	7
	8
	6
	7
	8
	5
	7
	17
	13
	14
	17
	6
	7
	8
	4
	14
	17
	13
	7
	8
	3
	16
	8
	5
	7
	17
	5
	14
	8
	3
	16
	8
	4
	5
	18
	2
	4
	18
	2
	4
	18
	5
	2
	18
	3
	3
	17
	7
	4
	17
	5
	5
	18
	2
	4
	18
	2
	3
	19
	12
	4
	10
	15
	0
	10
	15
	0
	10
	15
	0
	10
	15
	0
	10
	15
	0
	10
	15
	0
	1
	7
	5
	8
	7
	13
	8
	16
	13
	17
	16
	4
	17
	7
	4
	17
	7
	13
	8
	16
	3
	8
	7
	6
	8
	16
	6
	17
	16
	4
	12
	10
	4
	13
	8
	7
	6
	8
	14
	3
	17
	7
	13
	9
	11
	13
	9
	11
	13
	9
	0
	16
	9
	0
	13
	10
	0
	15
	10
	0
	2
	19
	11
	2
	1
	11
	15
	1
	11
	15
	1
	16
	12
	1
	14
	12
	19
	7
	12
	19
	16
	12
	19
	14
	12
	19
	14
	5
	17
	14
	13
	17
	7
	3
	8
	7
	5
	17
	16
	4
	8
	16
	4
	8
	14
	4
	17
	7
	6
	17
	14
	5
	8
	7
	5
	17
	14
	4
	8
	13
	16
	8
	6
	14
	8
	13
	16
	17
	3
	16
	9
	5
	11
	9
	13
	11
	9
	5
	11
	9
